Minimize
  obj: x0 + x1 + x2 + x3 + x4 + x5 + x6 + x7

Subject To
  c0: x0 + x3 + x4 + x6 = 53
  c1: x0 + x2 + x7 = 30
  c2: x0 + x1 + x7 = 43
  c3: x1 + x5 + x6 + x7 = 41
  c4: x1 + x5 + x6 + x7 = 41
  c5: x0 + x2 = 18
  c6: x2 + x4 + x5 = 24
  c7: x2 + x3 + x4 + x5 = 35

Bounds
  x0 >= 0
  x1 >= 0
  x2 >= 0
  x3 >= 0
  x4 >= 0
  x5 >= 0
  x6 >= 0
  x7 >= 0

Generals
  x0 x1 x2 x3 x4 x5 x6 x7

End
